(set-logic LIA)
(synth-fun findSum ( (y1 Int) (y2 Int) (y3 Int) (y4 Int) )Int ((Start Int ( 0 1 2 3 4 y1 y2 y3 y4 z (+ Start Start) (let ((z Int Start)) Start)  (ite BoolExpr Start Start))) (BoolExpr Bool ((< Start Start) (<= Start Start) (> Start Start) (>= Start Start)))))
(declare-var x1 Int)
(declare-var x2 Int)
(declare-var x3 Int)
(declare-var x4 Int)
(constraint (=> (> (+ x1 x2) 15) (= (findSum x1 x2 x3 x4 ) (+ x1 x2))))
(constraint (=> (and (<= (+ x1 x2) 15) (> (+ x2 x3) 15)) (= (findSum x1 x2 x3 x4 ) (+ x2 x3))))
(constraint (=> (and (and (<= (+ x1 x2) 15) (<= (+ x2 x3) 15)) (> (+ x3 x4) 15)) (= (findSum x1 x2 x3 x4 ) (+ x3 x4))))
(constraint (=> (and (<= (+ x1 x2) 15) (and (<= (+ x2 x3) 15) (<= (+ x3 x4) 15))) (= (findSum x1 x2 x3 x4 ) 0)))
(check-synth)
